# Solution for model count
# Objective value = 10
z#1 0
z#2 1
z#3 0
z#4 1
z#5 0
z#6 1
z#7 1
z#8 0
z#9 1
z#10 0
z#11 1
z#12 0
z#13 1
z#14 1
z#15 0
z#16 1
z#17 0
z#18 0
z#19 0
z#20 0
z#21 1
z#22 0
z#23 0
z#24 0
x#24 0
x#23 0
x#22 0
x#21 2850
x#20 0
x#19 0
x#18 0
x#17 0
x#16 411
x#15 0
x#14 640
x#13 503
x#12 0
x#11 2401
x#10 0
x#9 82
x#8 0
x#7 1441
x#6 1483
x#5 0
x#4 98
x#3 0
x#2 91
x#1 0
